n_machines = 10;
n_resources = 12;
n_jobs = 60;
horizon = 29839;
LB = 3627;
n_jobs_per_resource = [5, 5, 5, 5, 5, 5, 5, 5, 5, 5, 5, 5];
duration = [570, 410, 461, 592, 297, 786, 306, 834, 527, 888, 175, 295, 48, 860, 684, 412, 452, 148, 653, 771, 675, 952, 167, 940, 893, 382, 728, 137, 923, 528, 896, 648, 13, 539, 687, 513, 593, 35, 205, 743, 68, 363, 432, 668, 97, 680, 229, 244, 796, 525, 846, 348, 929, 161, 868, 123, 789, 12, 169, 126]